sat
(
(define-fun sym1438 () String "N")
(define-fun sym122 () String "MIDDLE SCHOOL")
(define-fun sym970 () String "")
(define-fun sym1312 () String "")
(define-fun sym400 () String "")
(define-fun sym742 () String "")
(define-fun sym247 () String "")
(define-fun sym1198 () String "")
(define-fun sym514 () String "")
(define-fun sym856 () String "")
(define-fun sym1084 () String "")
(define-fun sym628 () String "")
)
